20 40
1 2 19
0 4 7 9 11 14 15 16
0 5 8 9 10 17
4 7 9
1 3 9 13 14 18
2 8 11
7 10 11 13
1 3 6 18
2 5 14
1 2 3 4 13
2 6 13
1 5 6 18 19
13 17
4 6 9 10 12 15
1 4 8 17
1 13 16
1 15 18
2 12 14
4 7 11 16
0 11
